Traveling Salesman Problem/TSP_generados/Aleatorio1621103293_8.tsp
NAME: Aleatorio1621103293_8.tsp
COMMENT: Randomly generated scenario
TYPE: TSP
DIMENSION: 8
EDGE_WEIGHT_TYPE: ATT
NODE_COORD_SECTION
1 31.69 34.81
2 21.73 28.26
3 8.13 42.98
4 19.27 9.24
5 49.15 14.46
6 0.58 13.09
7 38.14 32.57
8 47.1 2.03
