Traveling Salesman Problem/TSP_generados/Aleatorio1621103293_8.opt.tour
NAME: Aleatorio1621103293_8.opt.tour
COMMENT: Optimal solution for Aleatorio1621103293_8 (151.2416215280645)
TYPE: TOUR
DIMENSION: 8
TOUR_SECTION
1 7 5 8 4 6 3 2
-1
EOF
